benchmarks/bfuzz0/20750300512257354122490178361740521311.smt2
(set-logic QF_FP)
(declare-const x0 (_ FloatingPoint 8 24))
(declare-const x1 (_ FloatingPoint 8 24))
(declare-const x2 (_ FloatingPoint 8 24))
(declare-const x3 (_ FloatingPoint 8 24))
(assert (fp.geq (fp.mul RNE x3 x1) (fp.neg x2)))
(assert (fp.eq (fp.mul RNE x3 x3) (fp.sub RNE x1 x2)))
(assert (fp.geq (fp.neg x2) (fp.mul RNE x2 x1)))
(assert (fp.lt (fp.neg x3) (fp.add RNE x3 x2)))
(assert (fp.geq (fp.neg x1) (fp.neg x1)))
(assert (fp.gt (fp.mul RNE x2 x0) (fp.neg x0)))
(assert (fp.lt (fp.mul RNE x3 x2) (fp.mul RNE x2 x0)))
(assert (fp.gt (fp.mul RNE x3 x1) (fp.sub RNE x2 x1)))
(assert (fp.leq (fp.add RNE x1 x2) (fp.add RNE x3 x3)))
(check-sat)
