db/data/20750300512257354122490178361740521311.z3.out
sat
-------------------
1.955150113
